D4 LOG: Running /Users/bryant/repos/d4/d4 ./mc2022_track2_045.cnf -dDNNF -out=./mc2022_track2_045.cnnf -drat=./mc2022_track2_045.drat
D4 LOG: Time limit 1000 seconds
c [33mBenchmark Information[0m
c Number of variables: 78
c Number of clauses: 416
c Number of literals: 2080
c Preproc options: 
c
c Preproc time: 0.000153
c Integer mode 
c
c [1m[32mOption list [0m
c Caching: 1
c Reduce cache procedure level: 20
c Strategy for Reducing the cache: 0
c Cache representation: CL
c Part of the formula that is cached: NT
c Variable heuristic: VSADS
c Phase heuristic: TRUE
c Partitioning heuristic: CB + graph reduction + equivalence simplication
c
c ----------------------------------------------------------------------------------------------------------------------------------------------------------
c   #compile |       time |    #posHit |    #negHit |     #split |    Mem(MB) |     #nodes |     #edges | #equivCall | #Dec. Node | #paritioner |  limit dyn | 
c ----------------------------------------------------------------------------------------------------------------------------------------------------------
c top 5: -17 
c top 5: -17 -28 
c top 5: -17 -28 -55 
c top 5: -17 -28 -55 -77 
c unitLits 1048577 4194308 Bytes
c top 5: -17 -28 -55 -77 
c top 5: -17 -28 -55 77 
c top 5: -17 -28 -55 77 
c top 5: -17 -28 55 
c top 5: -17 -28 55 -77 
c top 5: -17 -28 55 -77 
c top 5: -17 -28 55 77 
c top 5: -17 -28 55 77 
c top 5: -17 28 
c top 5: 17 
c top 5: 17 -28 
c top 5: 17 -28 -55 
c top 5: 17 -28 55 
c top 5: 17 28 
c ----------------------------------------------------------------------------------------------------------------------------------------------------------
c
c [1m[31mStatistics [0m
c [33mCompilation Information[0m
c Number of compiled node: 567
c Number of split formula: 272
c Number of decision node: 283
c Number of node built on domain constraints: 0
c Number of decomposable AND nodes: 136
c Number of backbone calls: 0
c Number of partitioner calls: 25
c Average number of assigned literal to obtain decomposable AND nodes: 7.76/78
c Minimum number of assigned variable where a decomposable AND appeared: 4
c 
c [33mGraph Information[0m
c Number of nodes: 1241
c Number of edges: 1660
c 
c [1m[34mCache Information[0m
c Memory used: 561 MB
c
c Number of positive hit: 340
c Number of negative hit: 283
c Number of reduceCall: 0
c
c Final time: 0.003613
c 
s 0.000000
D4 LOG: Elapsed time = 0.018 seconds
D4 OUTCOME: normal
mc2022_track2_045. D4 NNF LOG: size ./mc2022_track2_045.cnnf 1260 lines 17410 bytes
mc2022_track2_045. D4 DRAT LOG: size ./mc2022_track2_045.drat 840 lines 16689 bytes
DTRIM LOG: Running /Users/bryant/repos/drat-trim/drat-trim ./mc2022_track2_045.cnf ./mc2022_track2_045.drat -f -U
DTRIM LOG: Time limit 1000 seconds

c parsing input formula with 78 variables and 416 clauses

c finished parsing

c start forward verification

c 416 of 416 clauses in core                            

c 21 of 425 lemmas in core using 436 resolution steps

c 0 RAT lemmas in core; 0 redundant literals in core lemmas

c optimized proofs are not supported for forward checking

c VERIFIED derivation: all lemmas preserve satisfiability

c WARNING: no empty clause detected, this is not a refutation

s DERIVATION

c verification time: 0.026 seconds
DTRIM LOG: Elapsed time = 0.028 seconds
DTRIM OUTCOME: normal
CHECK LOG: Running /Users/bryant/repos/d4/certificator ./mc2022_track2_045.cnf ./mc2022_track2_045.cnnf ./mc2022_track2_045.drat
CHECK LOG: Time limit 1000 seconds
c CNF information
c Number of variables: 78
c Number of clauses: 416
c
c DRAT information
c Number of drat clauses: 424
c
c DDnnf parsing: 0.000
c DDnnf checked: 0.006
c
c Global time: 0.006
CHECK LOG: Elapsed time = 0.009 seconds
CHECK OUTCOME: normal
OVERALL LOG: Elapsed time = 0.056 seconds
OVERALL OUTCOME: normal
